c colouring generated by benchmark framework
p edge 211 4100
v 1 2
v 2 3
v 3 4
v 4 34
v 5 33
v 6 32
v 7 31
v 8 26
v 9 24
v 10 23
v 11 5
v 12 6
v 13 7
v 14 8
v 15 9
v 16 10
v 17 2
v 18 16
v 19 17
v 20 18
v 21 19
v 22 20
v 23 21
v 24 15
v 25 10
v 26 9
v 27 3
v 28 4
v 29 5
v 30 6
v 31 7
v 32 8
v 33 43
v 34 0
v 35 0
v 36 25
v 37 0
v 38 0
v 39 0
v 40 0
v 41 27
v 42 0
v 43 28
v 44 0
v 45 35
v 46 0
v 47 27
v 48 42
v 49 0
v 50 0
v 51 36
v 52 0
v 53 0
v 54 29
v 55 0
v 56 45
v 57 42
v 58 0
v 59 37
v 60 38
v 61 37
v 62 39
v 63 0
v 64 1
v 65 11
v 66 12
v 67 13
v 68 14
v 69 22
v 70 23
v 71 0
v 72 1
v 73 11
v 74 12
v 75 13
v 76 14
v 77 15
v 78 16
v 79 17
v 80 24
v 81 18
v 82 0
v 83 25
v 84 19
v 85 0
v 86 26
v 87 27
v 88 20
v 89 0
v 90 21
v 91 0
v 92 22
v 93 0
v 94 0
v 95 25
v 96 0
v 97 25
v 98 0
v 99 0
v 100 0
v 101 0
v 102 0
v 103 28
v 104 0
v 105 0
v 106 30
v 107 0
v 108 0
v 109 0
v 110 0
v 111 0
v 112 0
v 113 38
v 114 37
v 115 0
v 116 0
v 117 0
v 118 0
v 119 0
v 120 0
v 121 37
v 122 0
v 123 0
v 124 41
v 125 0
v 126 39
v 127 0
v 128 0
v 129 38
v 130 0
v 131 0
v 132 40
v 133 0
v 134 37
v 135 37
v 136 0
v 137 0
v 138 0
v 139 0
v 140 38
v 141 44
v 142 44
v 143 0
v 144 0
v 145 36
v 146 36
v 147 0
v 148 0
v 149 38
v 150 0
v 151 0
v 152 0
v 153 0
v 154 0
v 155 0
v 156 0
v 157 0
v 158 0
v 159 44
v 160 45
v 161 44
v 162 44
v 163 45
v 164 42
v 165 0
v 166 43
v 167 0
v 168 0
v 169 0
v 170 0
v 171 0
v 172 43
v 173 0
v 174 45
v 175 44
v 176 44
v 177 46
v 178 46
v 179 44
v 180 44
v 181 35
v 182 35
v 183 35
v 184 35
v 185 0
v 186 0
v 187 0
v 188 0
v 189 0
v 190 45
v 191 43
v 192 0
v 193 46
v 194 0
v 195 42
v 196 0
v 197 47
v 198 47
v 199 48
v 200 47
v 201 46
v 202 45
v 203 45
v 204 0
v 205 0
v 206 43
v 207 43
v 208 42
v 209 0
v 210 0
v 211 37
